c Command line: hgen8 100 50
p cnf 100 159
3 80 78 11 0
26 10 94 7 0
22 55 93 45 0
36 48 52 75 0
57 64 58 37 0
97 41 18 67 0
50 73 34 16 0
96 76 28 32 0
33 6 51 49 0
95 5 21 92 0
1 46 59 82 0
19 31 70 29 0
84 23 89 65 0
53 81 69 72 0
9 66 20 40 0
8 61 56 85 0
30 4 98 100 0
38 44 39 47 0
14 88 12 83 0
63 79 13 42 0
71 86 27 43 0
-1 -3 0
-1 -4 0
-1 -5 0
-3 -4 0
-3 -5 0
-4 -5 0
-6 -7 0
-6 -8 0
-6 -9 0
-6 -10 0
-7 -8 0
-7 -9 0
-7 -10 0
-8 -9 0
-8 -10 0
-9 -10 0
-11 -12 0
-11 -13 0
-11 -14 0
-12 -13 0
-12 -14 0
-13 -14 0
-16 -18 0
-16 -19 0
-16 -20 0
-18 -19 0
-18 -20 0
-19 -20 0
-21 -22 0
-21 -23 0
-22 -23 0
-26 -27 0
-26 -28 0
-26 -29 0
-26 -30 0
-27 -28 0
-27 -29 0
-27 -30 0
-28 -29 0
-28 -30 0
-29 -30 0
-31 -32 0
-31 -33 0
-31 -34 0
-32 -33 0
-32 -34 0
-33 -34 0
-36 -37 0
-36 -38 0
-36 -39 0
-36 -40 0
-37 -38 0
-37 -39 0
-37 -40 0
-38 -39 0
-38 -40 0
-39 -40 0
-41 -42 0
-41 -43 0
-41 -44 0
-41 -45 0
-42 -43 0
-42 -44 0
-42 -45 0
-43 -44 0
-43 -45 0
-44 -45 0
-46 -47 0
-46 -48 0
-46 -49 0
-46 -50 0
-47 -48 0
-47 -49 0
-47 -50 0
-48 -49 0
-48 -50 0
-49 -50 0
-51 -52 0
-51 -53 0
-51 -55 0
-52 -53 0
-52 -55 0
-53 -55 0
-56 -57 0
-56 -58 0
-56 -59 0
-57 -58 0
-57 -59 0
-58 -59 0
-61 -63 0
-61 -64 0
-61 -65 0
-63 -64 0
-63 -65 0
-64 -65 0
-66 -67 0
-66 -69 0
-66 -70 0
-67 -69 0
-67 -70 0
-69 -70 0
-71 -72 0
-71 -73 0
-71 -75 0
-72 -73 0
-72 -75 0
-73 -75 0
-76 -78 0
-76 -79 0
-76 -80 0
-78 -79 0
-78 -80 0
-79 -80 0
-81 -82 0
-81 -83 0
-81 -84 0
-81 -85 0
-82 -83 0
-82 -84 0
-82 -85 0
-83 -84 0
-83 -85 0
-84 -85 0
-86 -88 0
-86 -89 0
-88 -89 0
-92 -93 0
-92 -94 0
-92 -95 0
-93 -94 0
-93 -95 0
-94 -95 0
-96 -97 0
-96 -98 0
-96 -100 0
-97 -98 0
-97 -100 0
-98 -100 0
